
660.0
960.0
630.0
930.0
630.0
630.0
870.0
630.0
630.0
630.0
960.0
840.0
630.0
630.0
630.0
960.0
870.0
870.0
630.0
630.0
630.0
750.0
630.0
870.0
870.0
630.0
630.0
630.0
630.0
780.0
630.0
750.0
630.0
630.0
930.0
630.0
870.0
630.0
930.0
840.0
630.0
630.0
780.0
630.0
630.0
630.0
630.0
630.0
630.0
630.0